p wcnf 100 107 1000
1000 3 1 2 3 4 5 6 7 8 9 10  0
1000 7 -1 -2 -3 -4 -5 -6 -7 -8 -9 -10  0
1000 5 11 12 13 14 15 16 17 18 19 20  0
1000 5 -11 -12 -13 -14 -15 -16 -17 -18 -19 -20  0
1000 4 21 22 23 24 25 26 27 28 29 30  0
1000 6 -21 -22 -23 -24 -25 -26 -27 -28 -29 -30  0
1000 5 31 32 33 34 35 36 37 38 39 40  0
1000 5 -31 -32 -33 -34 -35 -36 -37 -38 -39 -40  0
1000 3 41 42 43 44 45 46 47 48 49 50  0
1000 7 -41 -42 -43 -44 -45 -46 -47 -48 -49 -50  0
1000 4 51 52 53 54 55 56 57 58 59 60  0
1000 6 -51 -52 -53 -54 -55 -56 -57 -58 -59 -60  0
1000 2 61 62 63 64 65 66 67 68 69 70  0
1000 8 -61 -62 -63 -64 -65 -66 -67 -68 -69 -70  0
1000 5 71 72 73 74 75 76 77 78 79 80  0
1000 5 -71 -72 -73 -74 -75 -76 -77 -78 -79 -80  0
1000 6 81 82 83 84 85 86 87 88 89 90  0
1000 4 -81 -82 -83 -84 -85 -86 -87 -88 -89 -90  0
1000 4 91 92 93 94 95 96 97 98 99 100  0
1000 6 -91 -92 -93 -94 -95 -96 -97 -98 -99 -100  0
1000 4 1 11 21 31 41 51 61 71 81 91  0
1000 6 -1 -11 -21 -31 -41 -51 -61 -71 -81 -91  0
1000 4 2 12 22 32 42 52 62 72 82 92  0
1000 6 -2 -12 -22 -32 -42 -52 -62 -72 -82 -92  0
1000 6 3 13 23 33 43 53 63 73 83 93  0
1000 4 -3 -13 -23 -33 -43 -53 -63 -73 -83 -93  0
1000 5 4 14 24 34 44 54 64 74 84 94  0
1000 5 -4 -14 -24 -34 -44 -54 -64 -74 -84 -94  0
1000 4 5 15 25 35 45 55 65 75 85 95  0
1000 6 -5 -15 -25 -35 -45 -55 -65 -75 -85 -95  0
1000 4 6 16 26 36 46 56 66 76 86 96  0
1000 6 -6 -16 -26 -36 -46 -56 -66 -76 -86 -96  0
1000 3 7 17 27 37 47 57 67 77 87 97  0
1000 7 -7 -17 -27 -37 -47 -57 -67 -77 -87 -97  0
1000 5 8 18 28 38 48 58 68 78 88 98  0
1000 5 -8 -18 -28 -38 -48 -58 -68 -78 -88 -98  0
1000 3 9 19 29 39 49 59 69 79 89 99  0
1000 7 -9 -19 -29 -39 -49 -59 -69 -79 -89 -99  0
1000 3 10 20 30 40 50 60 70 80 90 100  0
1000 7 -10 -20 -30 -40 -50 -60 -70 -80 -90 -100  0
1000 1 -1  0
1000 2 -11 -2  0
1000 1 21 12 3  0
1000 2 -21 -12 -3  0
1000 4 31 22 13 4  0
1000 2 41 32 23 14 5  0
1000 3 -41 -32 -23 -14 -5  0
1000 3 51 42 33 24 15 6  0
1000 3 -51 -42 -33 -24 -15 -6  0
1000 2 61 52 43 34 25 16 7  0
1000 5 -61 -52 -43 -34 -25 -16 -7  0
1000 4 71 62 53 44 35 26 17 8  0
1000 4 -71 -62 -53 -44 -35 -26 -17 -8  0
1000 4 81 72 63 54 45 36 27 18 9  0
1000 5 -81 -72 -63 -54 -45 -36 -27 -18 -9  0
1000 3 91 82 73 64 55 46 37 28 19 10  0
1000 7 -91 -82 -73 -64 -55 -46 -37 -28 -19 -10  0
1000 5 20 29 38 47 56 65 74 83 92  0
1000 4 -20 -29 -38 -47 -56 -65 -74 -83 -92  0
1000 2 30 39 48 57 66 75 84 93  0
1000 6 -30 -39 -48 -57 -66 -75 -84 -93  0
1000 2 40 49 58 67 76 85 94  0
1000 5 -40 -49 -58 -67 -76 -85 -94  0
1000 2 50 59 68 77 86 95  0
1000 4 -50 -59 -68 -77 -86 -95  0
1000 3 60 69 78 87 96  0
1000 2 -60 -69 -78 -87 -96  0
1000 2 70 79 88 97  0
1000 2 -70 -79 -88 -97  0
1000 2 80 89 98  0
1000 1 -80 -89 -98  0
1000 2 -90 -99  0
1000 1 -100  0
1000 3 1 12 23 34 45 56 67 78 89 100  0
1000 7 -1 -12 -23 -34 -45 -56 -67 -78 -89 -100  0
1000 3 11 22 33 44 55 66 77 88 99  0
1000 6 -11 -22 -33 -44 -55 -66 -77 -88 -99  0
1000 2 21 32 43 54 65 76 87 98  0
1000 6 -21 -32 -43 -54 -65 -76 -87 -98  0
1000 4 31 42 53 64 75 86 97  0
1000 3 -31 -42 -53 -64 -75 -86 -97  0
1000 3 41 52 63 74 85 96  0
1000 3 -41 -52 -63 -74 -85 -96  0
1000 2 51 62 73 84 95  0
1000 3 -51 -62 -73 -84 -95  0
1000 1 61 72 83 94  0
1000 3 -61 -72 -83 -94  0
1000 1 71 82 93  0
1000 2 -71 -82 -93  0
1000 2 81 92  0
1000 1 91  0
1000 5 2 13 24 35 46 57 68 79 90  0
1000 4 -2 -13 -24 -35 -46 -57 -68 -79 -90  0
1000 4 3 14 25 36 47 58 69 80  0
1000 4 -3 -14 -25 -36 -47 -58 -69 -80  0
1000 3 4 15 26 37 48 59 70  0
1000 4 -4 -15 -26 -37 -48 -59 -70  0
1000 3 5 16 27 38 49 60  0
1000 3 -5 -16 -27 -38 -49 -60  0
1000 1 6 17 28 39 50  0
1000 4 -6 -17 -28 -39 -50  0
1000 2 7 18 29 40  0
1000 2 -7 -18 -29 -40  0
1000 3 -8 -19 -30  0
1000 1 9 20  0
1000 1 -9 -20  0
1000 1 -10  0
